solution status: optimal solution found
objective value:                                   23
shell_j_thingy.ctrl_stage_inlet_hole                    1 	(obj:0)
shell_i_thingy.ctrl_inlet_pinholes[1].hole                    1 	(obj:0)
shell_j_thingy.ctrl_inlet_pinholes[3].hole                    1 	(obj:0)
shell_j_$_135__5                                    1 	(obj:0)
shell_j_thingy.thingy.chamber[1].first.vpump1.valves[0].vinlet                    1 	(obj:0)
shell_i_thingy.flush_collect_hole                    1 	(obj:0)
shell_j_thingy.flush_collect_hole                    1 	(obj:0)
shell_j_thingy.thingy.chamber[3].first.vpump2.valves[0].vinlet                    1 	(obj:0)
shell_j_thingy.thingy.chamber[0].first.vpump1.valves[0].vinlet                    1 	(obj:0)
shell_j_thingy.ctrl_inlet_pinholes[0].hole                    1 	(obj:0)
shell_j_$_130__5                                    1 	(obj:0)
shell_j_thingy.ctrl_inlet_pinholes[2].hole                    1 	(obj:0)
shell_j_thingy.thingy.chamber[2].first.vpump3.valves[0].vinlet                    1 	(obj:0)
shell_j_$_167__5                                    1 	(obj:0)
shell_j_thingy.flush_stage_outlet_hole                    1 	(obj:0)
shell_i_thingy.flush_inlet_pinholes[1].hole                    1 	(obj:0)
shell_j_thingy.thingy.chamber[1].first.vpump2.valves[0].vinlet                    1 	(obj:0)
shell_j_thingy.thingy.chamber[1].first.vsieve                    1 	(obj:0)
shell_i_thingy.thingy.chamber[2].first.vsieve                    1 	(obj:0)
shell_j_thingy.flush_inlet_pinholes[3].hole                    1 	(obj:0)
shell_j_thingy.flush_stage_inlet_hole                    1 	(obj:0)
shell_j_thingy.thingy.chamber[1].first.vpump3.valves[0].vinlet                    1 	(obj:0)
shell_i_thingy.flush_prep_outlet_pinholes[1].hole                    1 	(obj:0)
shell_i_thingy.thingy.prep.vin                      1 	(obj:0)
shell_j_$_149__5                                    1 	(obj:0)
shell_j_$_163__5                                    1 	(obj:0)
shell_j_thingy.thingy.chamber[0].first.vpump2.valves[0].vinlet                    1 	(obj:0)
shell_j_thingy.flush_bead_hole                      1 	(obj:0)
shell_j_thingy.ctrl_bead_hole                       1 	(obj:0)
shell_j_thingy.ctrl_collect_hole                    1 	(obj:0)
shell_i_thingy.flush_prep_outlet_pinholes[0].hole                    1 	(obj:0)
shell_j_thingy.thingy.chamber[2].first.vpump1.valves[0].vinlet                    1 	(obj:0)
shell_j_$_168__5                                    1 	(obj:0)
shell_j_$_151__5                                    1 	(obj:0)
shell_j_$_147__5                                    1 	(obj:0)
shell_j_$_132__5                                    1 	(obj:0)
shell_j_thingy.ctrl_inlet_pinholes[4].hole                    1 	(obj:0)
shell_j_thingy.thingy.chamber[0].first.vpump3.valves[0].vinlet                    1 	(obj:0)
shell_j_thingy.thingy.chamber[0].first.vsieve                    1 	(obj:0)
shell_j_thingy.thingy.chamber[3].first.vsieve                    1 	(obj:0)
shell_i_thingy.thingy.prep.sv1                      1 	(obj:0)
shell_j_thingy.thingy.chamber[3].first.vpump3.valves[0].vinlet                    1 	(obj:0)
shell_j_thingy.thingy.chamber[3].first.vpump1.valves[0].vinlet                    1 	(obj:0)
shell_i_thingy.thingy.prep.v2                       1 	(obj:0)
shell_j_thingy.flush_inlet_pinholes[0].hole                    1 	(obj:0)
shell_j_thingy.flush_inlet_pinholes[4].hole                    1 	(obj:0)
shell_j_thingy.thingy.chamber[2].first.vpump2.valves[0].vinlet                    1 	(obj:0)
shell_i_thingy.ctrl_prep_outlet_pinholes[0].hole                    1 	(obj:0)
shell_i_thingy.thingy.prep.v1                       1 	(obj:0)
shell_j_$_134__5                                    1 	(obj:0)
shell_j_$_165__5                                    1 	(obj:0)
shell_j_thingy.flush_inlet_pinholes[2].hole                    1 	(obj:0)
shell_i_thingy.ctrl_prep_outlet_pinholes[1].hole                    1 	(obj:0)
shell_j_thingy.ctrl_stage_outlet_hole                    1 	(obj:0)
shell_j_$_152__5                                    1 	(obj:0)
thingy.ctrl_inlet_pinholes[0].hole_z                  -24 	(obj:0)
$_135__5_y                                         -7 	(obj:0)
thingy.thingy.prep.vin_x                            7 	(obj:0)
thingy.thingy.prep.vin_y                            3 	(obj:0)
thingy.thingy.prep.vin_z                          -20 	(obj:0)
$_135__5_z                                         -7 	(obj:0)
$_130__5_x                                          2 	(obj:0)
$_149__5_x                                          6 	(obj:0)
$_149__5_y                                         -7 	(obj:0)
$_149__5_z                                         -2 	(obj:0)
$_130__5_y                                         -7 	(obj:0)
$_130__5_z                                         -5 	(obj:0)
$_163__5_x                                          3 	(obj:0)
$_163__5_y                                         -7 	(obj:0)
$_163__5_z                                         -6 	(obj:0)
thingy.ctrl_inlet_pinholes[1].hole_y                    1 	(obj:0)
thingy.ctrl_inlet_pinholes[1].hole_z                  -24 	(obj:0)
thingy.thingy.chamber[0].first.vpump2.valves[0].vinlet_x                    3 	(obj:0)
thingy.thingy.chamber[0].first.vpump2.valves[0].vinlet_y                   -7 	(obj:0)
thingy.thingy.chamber[0].first.vpump2.valves[0].vinlet_z                   -4 	(obj:0)
thingy.ctrl_inlet_pinholes[2].hole_x                    6 	(obj:0)
thingy.ctrl_inlet_pinholes[2].hole_y                    7 	(obj:0)
thingy.flush_bead_hole_x                            1 	(obj:0)
thingy.flush_bead_hole_y                           -7 	(obj:0)
thingy.flush_bead_hole_z                           -5 	(obj:0)
thingy.ctrl_inlet_pinholes[2].hole_z                  -16 	(obj:0)
thingy.thingy.chamber[1].first.vpump1.valves[0].vinlet_x                    4 	(obj:0)
thingy.ctrl_bead_hole_x                             1 	(obj:0)
thingy.ctrl_bead_hole_y                            -7 	(obj:0)
thingy.ctrl_bead_hole_z                            -8 	(obj:0)
thingy.thingy.chamber[1].first.vpump1.valves[0].vinlet_y                   -7 	(obj:0)
thingy.thingy.chamber[2].first.vpump3.valves[0].vinlet_x                    6 	(obj:0)
thingy.ctrl_collect_hole_x                          7 	(obj:0)
thingy.ctrl_collect_hole_y                         -7 	(obj:0)
thingy.ctrl_collect_hole_z                          1 	(obj:0)
thingy.thingy.chamber[2].first.vpump3.valves[0].vinlet_y                   -7 	(obj:0)
thingy.thingy.chamber[2].first.vpump3.valves[0].vinlet_z                   -6 	(obj:0)
thingy.flush_prep_outlet_pinholes[0].hole_x                    7 	(obj:0)
thingy.flush_prep_outlet_pinholes[0].hole_y                    3 	(obj:0)
thingy.flush_prep_outlet_pinholes[0].hole_z                  -16 	(obj:0)
thingy.thingy.chamber[1].first.vpump1.valves[0].vinlet_z                   -4 	(obj:0)
thingy.ctrl_stage_inlet_hole_z                     -4 	(obj:0)
thingy.thingy.chamber[2].first.vpump1.valves[0].vinlet_x                    3 	(obj:0)
thingy.thingy.chamber[2].first.vpump1.valves[0].vinlet_y                   -7 	(obj:0)
thingy.thingy.chamber[2].first.vpump1.valves[0].vinlet_z                   -5 	(obj:0)
$_167__5_x                                          2 	(obj:0)
$_167__5_y                                         -7 	(obj:0)
$_168__5_x                                          6 	(obj:0)
$_168__5_y                                         -7 	(obj:0)
$_168__5_z                                         -4 	(obj:0)
$_167__5_z                                         -8 	(obj:0)
thingy.ctrl_stage_inlet_hole_x                     -1 	(obj:0)
$_151__5_x                                          1 	(obj:0)
$_151__5_y                                         -7 	(obj:0)
$_151__5_z                                         -4 	(obj:0)
thingy.flush_collect_hole_x                         7 	(obj:0)
thingy.flush_stage_outlet_hole_x                    7 	(obj:0)
$_147__5_x                                          2 	(obj:0)
$_147__5_y                                         -7 	(obj:0)
$_147__5_z                                         -7 	(obj:0)
thingy.flush_stage_outlet_hole_y                   -7 	(obj:0)
thingy.flush_stage_outlet_hole_z                   -3 	(obj:0)
$_132__5_x                                          7 	(obj:0)
$_132__5_y                                         -7 	(obj:0)
$_132__5_z                                         -2 	(obj:0)
thingy.flush_collect_hole_y                        -7 	(obj:0)
thingy.flush_collect_hole_z                        -8 	(obj:0)
thingy.ctrl_inlet_pinholes[4].hole_x                    7 	(obj:0)
thingy.ctrl_inlet_pinholes[4].hole_y                    7 	(obj:0)
thingy.ctrl_inlet_pinholes[4].hole_z                  -17 	(obj:0)
thingy.flush_inlet_pinholes[1].hole_x                    7 	(obj:0)
thingy.flush_inlet_pinholes[1].hole_y                    1 	(obj:0)
thingy.thingy.chamber[0].first.vpump3.valves[0].vinlet_x                    5 	(obj:0)
thingy.thingy.chamber[0].first.vpump3.valves[0].vinlet_y                   -7 	(obj:0)
thingy.thingy.chamber[0].first.vpump3.valves[0].vinlet_z                   -6 	(obj:0)
thingy.flush_inlet_pinholes[1].hole_z                  -20 	(obj:0)
thingy.ctrl_inlet_pinholes[3].hole_x                    7 	(obj:0)
thingy.thingy.chamber[0].first.vsieve_x                    6 	(obj:0)
thingy.thingy.chamber[0].first.vsieve_y                   -7 	(obj:0)
thingy.ctrl_inlet_pinholes[3].hole_y                    7 	(obj:0)
thingy.thingy.chamber[1].first.vpump2.valves[0].vinlet_x                    2 	(obj:0)
thingy.thingy.chamber[3].first.vsieve_x                    7 	(obj:0)
thingy.thingy.chamber[3].first.vsieve_y                   -7 	(obj:0)
thingy.thingy.chamber[3].first.vsieve_z                   -7 	(obj:0)
thingy.thingy.chamber[1].first.vpump2.valves[0].vinlet_y                   -7 	(obj:0)
thingy.thingy.chamber[1].first.vpump2.valves[0].vinlet_z                   -6 	(obj:0)
thingy.thingy.prep.sv1_x                            7 	(obj:0)
thingy.thingy.prep.sv1_y                           -3 	(obj:0)
thingy.thingy.prep.sv1_z                          -12 	(obj:0)
thingy.thingy.chamber[3].first.vpump2.valves[0].vinlet_x                    5 	(obj:0)
thingy.thingy.chamber[3].first.vpump2.valves[0].vinlet_y                   -7 	(obj:0)
thingy.thingy.chamber[3].first.vpump3.valves[0].vinlet_x                    7 	(obj:0)
thingy.thingy.chamber[3].first.vpump3.valves[0].vinlet_y                   -7 	(obj:0)
thingy.thingy.chamber[3].first.vpump3.valves[0].vinlet_z                   -6 	(obj:0)
thingy.thingy.chamber[1].first.vsieve_x                    7 	(obj:0)
thingy.thingy.chamber[1].first.vsieve_y                   -7 	(obj:0)
thingy.thingy.chamber[3].first.vpump1.valves[0].vinlet_x                    3 	(obj:0)
thingy.thingy.chamber[3].first.vpump1.valves[0].vinlet_y                   -7 	(obj:0)
thingy.thingy.chamber[3].first.vpump1.valves[0].vinlet_z                   -8 	(obj:0)
thingy.thingy.chamber[3].first.vpump2.valves[0].vinlet_z                   -7 	(obj:0)
thingy.thingy.prep.v2_x                             7 	(obj:0)
thingy.thingy.prep.v2_y                            -1 	(obj:0)
thingy.thingy.prep.v2_z                           -16 	(obj:0)
thingy.ctrl_inlet_pinholes[3].hole_z                  -20 	(obj:0)
thingy.thingy.chamber[2].first.vsieve_x                    7 	(obj:0)
thingy.flush_inlet_pinholes[0].hole_x                    6 	(obj:0)
thingy.flush_inlet_pinholes[0].hole_y                    7 	(obj:0)
thingy.flush_inlet_pinholes[0].hole_z                  -24 	(obj:0)
thingy.thingy.chamber[2].first.vsieve_y                   -3 	(obj:0)
thingy.thingy.chamber[2].first.vsieve_z                   -3 	(obj:0)
thingy.flush_inlet_pinholes[4].hole_x                    7 	(obj:0)
thingy.flush_inlet_pinholes[4].hole_y                    7 	(obj:0)
thingy.flush_inlet_pinholes[4].hole_z                  -16 	(obj:0)
thingy.ctrl_stage_inlet_hole_y                     -7 	(obj:0)
thingy.thingy.chamber[0].first.vpump1.valves[0].vinlet_x                    2 	(obj:0)
thingy.thingy.chamber[2].first.vpump2.valves[0].vinlet_x                    5 	(obj:0)
thingy.thingy.chamber[2].first.vpump2.valves[0].vinlet_y                   -7 	(obj:0)
thingy.thingy.chamber[2].first.vpump2.valves[0].vinlet_z                   -4 	(obj:0)
thingy.flush_inlet_pinholes[3].hole_x                    5 	(obj:0)
thingy.flush_inlet_pinholes[3].hole_y                    7 	(obj:0)
thingy.ctrl_prep_outlet_pinholes[0].hole_x                    7 	(obj:0)
thingy.ctrl_prep_outlet_pinholes[0].hole_y                    3 	(obj:0)
thingy.ctrl_prep_outlet_pinholes[0].hole_z                  -17 	(obj:0)
thingy.flush_inlet_pinholes[3].hole_z                  -24 	(obj:0)
thingy.thingy.chamber[0].first.vpump1.valves[0].vinlet_y                   -7 	(obj:0)
thingy.thingy.prep.v1_x                             7 	(obj:0)
thingy.thingy.prep.v1_y                             1 	(obj:0)
thingy.thingy.prep.v1_z                           -16 	(obj:0)
thingy.thingy.chamber[0].first.vpump1.valves[0].vinlet_z                   -4 	(obj:0)
thingy.flush_stage_inlet_hole_x                     6 	(obj:0)
$_134__5_y                                         -7 	(obj:0)
$_134__5_z                                         -5 	(obj:0)
thingy.flush_stage_inlet_hole_y                    -7 	(obj:0)
thingy.flush_stage_inlet_hole_z                   -11 	(obj:0)
$_165__5_x                                          7 	(obj:0)
$_165__5_y                                         -7 	(obj:0)
$_165__5_z                                         -4 	(obj:0)
thingy.ctrl_inlet_pinholes[1].hole_x                    7 	(obj:0)
$_135__5_x                                          1 	(obj:0)
thingy.flush_inlet_pinholes[2].hole_x                    5 	(obj:0)
thingy.flush_inlet_pinholes[2].hole_y                    7 	(obj:0)
thingy.flush_inlet_pinholes[2].hole_z                  -16 	(obj:0)
thingy.thingy.chamber[1].first.vpump3.valves[0].vinlet_x                    4 	(obj:0)
thingy.thingy.chamber[1].first.vpump3.valves[0].vinlet_y                   -7 	(obj:0)
thingy.ctrl_prep_outlet_pinholes[1].hole_x                    7 	(obj:0)
thingy.ctrl_prep_outlet_pinholes[1].hole_y                   -5 	(obj:0)
thingy.ctrl_prep_outlet_pinholes[1].hole_z                  -12 	(obj:0)
thingy.thingy.chamber[1].first.vpump3.valves[0].vinlet_z                   -8 	(obj:0)
thingy.ctrl_inlet_pinholes[0].hole_x                    7 	(obj:0)
thingy.ctrl_stage_outlet_hole_x                     5 	(obj:0)
thingy.ctrl_stage_outlet_hole_y                    -7 	(obj:0)
thingy.ctrl_stage_outlet_hole_z                    -3 	(obj:0)
thingy.ctrl_inlet_pinholes[0].hole_y                    7 	(obj:0)
thingy.flush_prep_outlet_pinholes[1].hole_x                    7 	(obj:0)
$_152__5_x                                          5 	(obj:0)
$_152__5_y                                         -7 	(obj:0)
$_152__5_z                                         -8 	(obj:0)
thingy.flush_prep_outlet_pinholes[1].hole_y                   -5 	(obj:0)
thingy.flush_prep_outlet_pinholes[1].hole_z                  -16 	(obj:0)
x291                                                1 	(obj:1)
x292                                                2 	(obj:1)
x294                                                1 	(obj:1)
x315                                                1 	(obj:1)
x336                                                1 	(obj:1)
x341                                                2 	(obj:1)
x347                                                2 	(obj:1)
x348                                                2 	(obj:1)
x358                                                2 	(obj:1)
x372                                                2 	(obj:1)
x410                                                2 	(obj:1)
x411                                                2 	(obj:1)
x424                                                1 	(obj:1)
x443                                                2 	(obj:1)
